\* sidsproblem *\
Minimize
OBJ: x__X_4_
Subject To
_C1: x__G_3_1_ + x__G_3_2_ + x__G_3_3_ + x__G_3_4_ = 4
_C10: 4 x__A_3_1_ - 4 x__X_1_ = 0
_C11: 6 x__A_4_2_ - 6 x__X_2_ = 0
_C12: 4 x__A_4_3_ - 4 x__X_3_ = 0
_C13: x__A_4_4_ - x__X_4_ = 0
_C14: x__G_3_1_ + x__G_4_1_ <= 1
_C15: x__G_3_2_ + x__G_4_2_ <= 28
_C16: x__G_3_3_ + x__G_4_3_ <= 1008
_C17: x__G_3_4_ + x__G_4_4_ <= 45360
_C18: - 8 x__U_3_ + 8 x__U_4_ >= 7
_C19: x__X_0_ = 1
_C2: x__G_3_1_ + 2 x__G_3_2_ + 3 x__G_3_3_ + 4 x__G_3_4_ - 4 x__V_3_ = 0
_C20: x__X_1_ = 2
_C21: - x__X_0_ + x__X_1_ <= 5
_C22: - x__X_0_ + x__X_1_ >= -5
_C23: - x__X_1_ + x__X_2_ <= 5
_C24: - x__X_1_ + x__X_2_ >= -5
_C25: - x__X_2_ + x__X_3_ <= 5
_C26: - x__X_2_ + x__X_3_ >= -5
_C27: - x__X_3_ + x__X_4_ <= 5
_C28: - x__X_3_ + x__X_4_ >= -5
_C29: - x__X_1_ + x__X_3_ - x__X_4_ <= 4
_C3: x__G_4_1_ + x__G_4_2_ + x__G_4_3_ + x__G_4_4_ = 11
_C4: x__G_4_1_ + 2 x__G_4_2_ + 3 x__G_4_3_ + 4 x__G_4_4_ - 11 x__V_4_ = 0
_C5: - 4 x__U_3_ + 4 x__V_3_ = 0
_C6: - 15 x__U_4_ + 4 x__V_3_ + 11 x__V_4_ = 0
_C7: 4 x__A_3_1_ - 4 x__V_3_ = 0
_C8: 6 x__A_4_2_ + 4 x__A_4_3_ + x__A_4_4_ - 11 x__V_4_ = 0
_dummy: __dummy = 0
_C9: __dummy = 0
End
